Name: uumCAS
Courses: 247
Rooms: 32
Days: 5
Periods_per_day: 18
Curricula: 172
Min_Max_Daily_Lectures: 2 7
UnavailabilityConstraints: 1482
RoomConstraints: 0

COURSES:
SADN1013 T0 12 2 200 1
SADN1033 T1 12 2 205 1
SADN1043 T2 12 2 151 1
SBLE1033 T3 12 2 32 1
SBLE1043 T4 12 2 40 1
SBLE2083 T9 12 2 24 1
SBLE2103 T11 12 2 31 1
SBLF1013 T12 12 2 25 1
SBLF1023 T13 12 2 25 1
SBLF1033 T14 12 2 25 1
SBLF1043 T15 12 2 25 1
SBLF1053 T16 12 2 28 1
SBLF1063 T17 12 2 25 1
SBLF1073 T18 12 2 40 1
SBLF1083 T19 12 2 25 1
SBLF2013 T21 12 2 25 1
SBLF2023 T22 12 2 25 1
SBLF2033 T23 12 2 25 1
SBLF2043 T24 12 2 25 1
SBLF2053 T25 12 2 25 1
SBLF2063 T26 6 2 25 1
SBLF2073 T27 12 2 26 1
SBLF2083 T28 12 2 25 1
SBLF3013 T29 6 2 25 1
SBLF3023 T30 12 2 25 1
SBLF3033 T31 6 2 29 1
SBLF3043 T32 6 2 25 1
SBLF3053 T33 12 2 25 1
SBLF3063 T34 6 2 25 1
SBLF3073 T35 12 2 25 1
SBLF3083 T36 12 2 25 1
SBLM1013 T37 6 2 25 1
SBLM1023 T38 12 2 50 1
SBLM1043 T39 6 2 30 1
SBLM1053 T40 12 2 70 1
SBLM2023 T41 12 2 25 1
SBLM3033 T42 6 2 25 1
SCCA1013 T43 12 2 101 1
SCCA1023 T44 6 2 100 1
SCCA1033 T45 6 2 60 1
SCCA2013 T46 12 2 80 1
SCCA2023 T47 12 2 80 1
SCCA2033 T48 12 2 80 1
SCCA2043 T49 12 2 80 1
SCCA2053 T50 6 2 60 1
SCCA2073 T52 6 2 70 1
SCCA2083 T53 12 2 80 1
SCCA3013 T54 6 2 60 1
SCCA3023 T55 6 2 60 1
SCCD3223 T56 6 2 60 1
SCCD3233 T57 6 2 60 1
SCCD3243 T58 6 2 60 1
SCCD3263 T59 6 2 60 1
SCCG3113 T60 6 2 66 1
SCCG3123 T61 6 2 60 1
SCCG3133 T62 6 2 60 1
SCCG3143 T63 6 2 60 1
SCCT1013 T64 12 2 80 1
SCCT1033 T66 12 2 60 1
SCCT1043 T67 6 2 40 1
SCCT1053 T68 6 2 40 1
SCCT1063 T69 12 2 40 1
SCCT1083 T71 12 2 65 1
SCCT1093 T72 12 2 100 1
SCCT2033 T75 12 2 60 1
SCCT2043 T76 12 2 32 1
SCCT2213 T78 6 2 40 1
SCCT2313 T79 6 2 40 1
SCCT2413 T80 6 2 60 1
SCCT3213 T82 6 2 42 1
SCCT3223 T83 6 2 40 1
SCCT3313 T84 6 2 40 1
SCCT3323 T85 6 2 30 1
SCCT3413 T86 6 2 60 1
SCCT3423 T87 6 2 60 1
SCCT3996 T88 12 2 85 1
SCIM1013 T90 6 2 80 1
SCIM1023 T91 12 2 80 1
SCIM1033 T92 6 2 80 1
SCIM2013 T93 12 2 30 1
SCIM2023 T94 6 2 30 1
SCIM2033 T95 8 2 31 1
SCIM2103 T96 6 2 30 1
SCIM2303 T97 8 2 30 1
SCIM2403 T98 8 2 30 1
SGDA2013 T99 16 3 60 1
SGDA2033 T100 8 3 70 1
SGDA3014 T101 16 3 70 1
SGDE3013 T103 8 3 50 1
SGDK3013 T105 6 2 50 1
SGDM3013 T106 12 2 40 1
SGDM3043 T108 12 2 40 1
SGDN1043 T109 12 2 105 1
SGDN2023 T110 12 2 80 1
SGDV2033 T114 6 2 100 1
SGDV2053 T115 6 2 100 1
SGDV2073 T116 6 2 50 1
SGDV2093 T117 6 2 30 1
SGDV3993 T118 12 2 50 1
SQIT1013 T120 6 2 30 1
SQIT3013 T121 6 2 39 1
SQIT3023 T122 6 2 50 1
SQIT3033 T123 12 2 30 1
SQQM1034 T125 16 3 50 1
SQQM1043 T126 8 3 50 1
SQQM1063 T127 12 2 46 1
SQQM2023 T128 12 2 50 1
SQQM2034 T129 16 3 40 1
SQQM2043 T130 12 2 40 1
SQQM3043 T133 6 2 52 1
SQQP1013 T134 8 3 50 1
SQQP1014 T135 16 3 50 1
SQQP2013 T136 16 3 50 1
SQQP3013 T137 6 2 50 1
SQQP3023 T138 6 2 50 1
SQQP3033 T139 12 2 31 1
SQQP3043 T140 12 2 50 1
SQQP3063 T141 12 2 36 1
SQQS1013 T142 12 2 50 1
SQQS1033 T143 16 3 50 1
SQQS1043 T144 8 3 50 1
SQQS2013 T145 12 2 51 1
SQQS2023 T146 6 2 50 1
SQQS2043 T148 6 2 50 1
SQQS2063 T149 12 2 50 1
SQQS3033 T150 12 2 43 1
SQQS3043 T151 6 2 50 1
SQQS3053 T152 12 2 50 1
SQQS3063 T153 12 2 50 1
SQQS3073 T154 6 2 50 1
SSCX4983 T156 12 2 100 1
SSCZ4996 T157 6 2 100 1
SSKC1013 T158 6 2 100 1
SSKC2213 T159 6 2 70 1
SSKC2233 T160 12 2 100 1
SSKC3233 T161 6 2 100 1
SSKC3433 T162 6 2 62 1
SSKC3623 T163 6 2 40 1
SSKC3733 T164 6 2 100 1
SSKC4613 T165 6 2 50 1
SSKC4813 T166 6 2 60 1
SSQL1113 T167 12 2 100 1
SSSP1013 T169 6 2 80 1
SSWA2103 T170 12 2 30 1
SSWA2203 T171 12 2 30 1
SSWA2303 T172 12 2 30 1
SSWA2313 T173 6 2 58 1
SSWA3113 T174 6 2 40 1
SSWA3123 T175 6 2 40 1
SSWA3133 T176 6 2 40 1
SSWA3413 T177 6 2 40 1
SSWA3713 T178 6 2 40 1
SSWA3813 T179 6 2 40 1
SSWP1013 T180 6 2 61 1
SSWP1033 T181 12 2 80 1
SSWR2063 T182 6 2 60 1
SSWS2153 T183 6 2 40 1
SSWS2213 T184 6 2 40 1
SSWT1033 T185 12 2 30 1
SSWY1043 T187 6 2 60 1
SSYA1013 T188 12 2 101 1
SSYM1023 T189 6 2 60 1
SSYM2213 T190 6 2 100 1
SSYP2013 T191 12 2 100 1
SSYP2133 T192 6 2 80 1
SSYP2313 T193 6 2 80 1
SSYP2433 T194 6 2 80 1
SSYP4543 T195 12 2 60 1
SSYS2023 T196 6 2 60 1
SSZK2003 T197 12 2 100 1
STIA1013 T198 6 2 30 1
STIA1014 T199 20 2 40 1
STIA1023 T200 12 2 35 1
STIA2023 T201 6 2 45 1
STIA2024 T202 16 2 42 1
STID1013 T203 12 2 75 1
STID1103 T204 12 2 103 1
STID3013 T205 6 2 60 1
STID3014 T206 16 2 42 1
STID3023 T207 6 2 40 1
STID3024 T208 16 2 40 1
STID3033 T209 6 2 60 1
STID3053 T210 6 2 60 1
STID3073 T211 12 2 60 1
STID3113 T212 6 2 60 1
STID3123 T213 6 2 60 1
STID3143 T214 6 2 60 1
STID3153 T215 12 2 60 1
STID3154 T216 12 2 60 1
STID3163 T217 12 2 60 1
STID4053 T218 6 2 60 1
STID4063 T219 6 2 40 1
STID4073 T220 6 2 60 1
STIJ2023 T222 6 2 40 1
STIJ2024 T223 12 2 45 1
STIJ3023 T224 6 2 60 1
STIJ3043 T225 6 2 60 1
STIJ3044 T226 8 2 40 1
STIJ3053 T227 6 2 60 1
STIJ3063 T228 6 2 60 1
STIJ3103 T229 6 2 60 1
STIJ3133 T230 12 2 40 1
STIJ3143 T231 12 2 60 1
STIJ4053 T232 6 2 40 1
STIK1013 T233 6 2 60 1
STIK1014 T234 16 2 60 1
STIK2023 T235 6 2 60 1
STIK2024 T236 8 2 60 1
STIK2043 T237 6 2 60 1
STIN1013 T238 6 2 60 1
STIN2023 T239 6 2 60 1
STIN2024 T240 8 2 60 1
STIN2043 T241 6 2 60 1
STIN2063 T242 6 2 60 1
STIN2103 T243 6 2 60 1
STIN3033 T244 6 2 60 1
STIN3073 T245 6 2 40 1
STIN3163 T246 6 2 40 1
STIV1013 T247 16 2 33 1
STIV1023 T248 12 2 30 1
STIV2013 T249 16 2 37 1
STIV2023 T250 16 2 35 1
STIV2043 T251 16 2 30 1
STIV3013 T252 8 2 31 1
STIV3023 T253 16 2 30 1
STIV3033 T254 12 2 40 1
STIV3043 T255 16 2 30 1
STIV3053 T256 12 2 40 1
STIV3063 T257 12 2 40 1
STIV3073 T258 6 2 40 1
STIV3083 T259 8 2 30 1
STIV3093 T260 16 2 30 1
STIV3103 T261 16 2 30 1
STIV3113 T262 8 2 40 1
STIW2024 T263 6 2 40 1
STIW2043 T264 12 2 40 1
STIW3013 T265 12 2 40 1
STIW3023 T266 6 2 60 1
STIW3033 T267 6 2 60 1
STIW3043 T268 6 2 60 1
STIW3053 T269 6 2 30 1
STIW3063 T270 6 2 40 1
STIW3103 T271 12 2 40 1
STIW3113 T272 8 2 40 1
STQM1203 T274 16 3 77 1
STQM2103 T275 16 3 60 1
STQS1023 T276 16 3 60 1

ROOMS:
BK6_32 40 0
BK6_51 40 0
BK6_53 40 0
BK6_59 40 0
BK6_7 40 0
BKBM0_1 40 0
BKBM0_3 40 0
BKBM0_4 50 0
BKBM0_5 40 0
BKBM1_6 40 0
BKBM2_1 40 0
BKBM2_10 40 0
BKBM2_11 40 0
BKBM2_12 40 0
BSKP1_14 40 0
DKG3_1 750 1
DKG3_10 100 1
DKG3_2 500 1
DKG3_3 200 1
DKG3_8 100 1
DKG3_9 100 1
DKG4_1 350 1
DKG4_2 200 1
DKG6_15 100 1
DKG6_16 100 1
SQSBT1 60 2
SQSBT11 60 2
SQSBT3 60 2
SQSBT7 60 2
SQSBT9 60 2
SQSDP1 100 2
SQSDP2 100 2

CURRICULA:
QIT1L 5 SADN1043 SADN1033 STIA1013 STQM1203 STQS1023 
QIT2L 5 SADN1013 SBLE1033 STIN1013 STIK1013 STIA1023 
QIT3L 6 STID3023 STIJ2023 STQM2103 STIA2023 STIV2013 SBLE1043 
QIM4L 6 STIK2043 STID3163 STID3013 SBLE2103 STID3153 STID3053 
QIM5L 6 STID3073 STID3123 STID3033 STID3143 SGDN1043 STID4053 
QIM6L 3 STID3113 STID4063 STID4073 
QSE4L 6 STIK2043 STID3163 STID3013 SBLE2103 STIW3033 STIW2043 
QSE5L 6 STID3073 STIW3053 STIW3103 STIW3023 SGDN1043 STIW3013 
QSE6L 3 STIW3043 STIW3113 STIW3063 
QIS4L 6 STIK2043 STID3163 STID3013 SBLE2103 STIN2023 STIN2103 
QIS5L 5 STID3073 STIN2063 STIN2043 SGDN1043 STIN3033 
QIS6L 2 STIN3163 STIN3073 
QNW4L 7 STIK2043 STID3163 STID3013 SBLE2103 STIJ3023 STIJ3053 STIJ3043 
QNW5L 5 STID3073 STIJ3103 STIJ3143 STIK2023 SGDN1043 
QNW6L 3 STIJ3063 STIJ3133 STIJ4053 
QIT1 6 SADN1013 SBLE1033 STIA1014 SGDN1043 STQM1203 SADN1033 
QIT2 6 SADN1043 SBLE1043 STIN1013 STIK1014 STIA2024 STQS1023 
QIM3 5 STID3024 STIJ2024 STID3014 SBLE2103 STID3154 
QIM4 1 STIV2013 
QIM5 2 STQM2103 STID3113 
QSE3 5 STID3024 STIJ2024 STID3014 SBLE2103 STIW2024 
QIS3 5 STID3024 STIJ2024 STID3014 SBLE2103 STIN2024 
QNW3 5 STID3024 STIJ2024 STID3014 SBLE2103 STIK2024 
QNW4 2 STIV2013 STIJ3044 
QMM1 6 SADN1013 SADN1033 SBLE1033 STIV1013 STID1013 STQM1203 
QMM2 6 SBLE1043 STIA1014 STIV1023 SGDN1043 STQM2103 SADN1043 
QMM3 6 SBLE2103 STIN1013 STIV2023 STIV2043 STID3024 STQS1023 
QMM4 5 STID3014 STIV2013 STIV3043 STIV3093 STID3113 
QMM5 5 STIV3013 STIV3033 STIV3023 STIV3103 STID3154 
QMM6 4 STIV3073 STIV3053 STIV3063 STIV3113 
QMM6L 4 STIV3083 STIV3013 SGDN1043 STIV3073 
QMT1A 6 SADN1013 SADN1033 SBLE1033 SCCT1013 SCCT1033 SBLF1013 
QMT2A 6 SBLE1043 SBLM1013 SCCT1043 SCCT1053 SCCT1063 SBLF2013 
QMT1B 6 SADN1013 SADN1033 SBLE1033 SCCT1013 SCCT1033 SBLF1023 
QMT2B 6 SBLE1043 SBLM1013 SCCT1043 SCCT1053 SCCT1063 SBLF2023 
QMT1C 6 SADN1013 SADN1033 SBLE1033 SCCT1013 SCCT1033 SBLF1033 
QMT2C 6 SBLE1043 SBLM1013 SCCT1043 SCCT1053 SCCT1063 SBLF2033 
QMT1D 6 SADN1013 SADN1033 SBLE1033 SCCT1013 SCCT1033 SBLF1043 
QMT2D 6 SBLE1043 SBLM1013 SCCT1043 SCCT1053 SCCT1063 SBLF2043 
QMT1E 6 SADN1013 SADN1033 SBLE1033 SCCT1013 SCCT1033 SBLF1053 
QMT2E 6 SBLE1043 SBLM1013 SCCT1043 SCCT1053 SCCT1063 SBLF2053 
QMT1F 6 SADN1013 SADN1033 SBLE1033 SCCT1013 SCCT1033 SBLF1063 
QMT2F 6 SBLE1043 SBLM1013 SCCT1043 SCCT1053 SCCT1063 SBLF2063 
QMT1G 6 SADN1013 SADN1033 SBLE1033 SCCT1013 SCCT1033 SBLF1073 
QMT2G 6 SBLE1043 SBLM1013 SCCT1043 SCCT1053 SCCT1063 SBLF2073 
QMT1H 6 SADN1013 SADN1033 SBLE1033 SCCT1013 SCCT1033 SBLF1083 
QMT2H 6 SBLE1043 SBLM1013 SCCT1043 SCCT1053 SCCT1063 SBLF2083 
QMT3AEJ 6 SBLE2103 SCCT1083 SCCT1093 SCCT2033 SCCT2313 SBLF3013 
QMT3BEJ 6 SBLE2103 SCCT1083 SCCT1093 SCCT2033 SCCT2313 SBLF3023 
QMT3CEJ 6 SBLE2103 SCCT1083 SCCT1093 SCCT2033 SCCT2313 SBLF3033 
QMT3DEJ 6 SBLE2103 SCCT1083 SCCT1093 SCCT2033 SCCT2313 SBLF3043 
QMT3EEJ 6 SBLE2103 SCCT1083 SCCT1093 SCCT2033 SCCT2313 SBLF3053 
QMT3FEJ 6 SBLE2103 SCCT1083 SCCT1093 SCCT2033 SCCT2313 SBLF3063 
QMT3GEJ 6 SBLE2103 SCCT1083 SCCT1093 SCCT2033 SCCT2313 SBLF3073 
QMT3HEJ 6 SBLE2103 SCCT1083 SCCT1093 SCCT2033 SCCT2313 SBLF3083 
QMT4EJ 2 SSQL1113 SCCT2043 
QMT5EJ 3 SCCT3313 SCCT3323 SCCT3996 
QMT6EJ 2 SADN1043 SBLE2083 
QMT3ADA 6 SBLE2103 SCCT1083 SCCT1093 SCCT2033 SCCT2213 SBLF3013 
QMT3BDA 6 SBLE2103 SCCT1083 SCCT1093 SCCT2033 SCCT2213 SBLF3023 
QMT3CDA 6 SBLE2103 SCCT1083 SCCT1093 SCCT2033 SCCT2213 SBLF3033 
QMT3DDA 6 SBLE2103 SCCT1083 SCCT1093 SCCT2033 SCCT2213 SBLF3043 
QMT3EDA 6 SBLE2103 SCCT1083 SCCT1093 SCCT2033 SCCT2213 SBLF3053 
QMT3FDA 6 SBLE2103 SCCT1083 SCCT1093 SCCT2033 SCCT2213 SBLF3063 
QMT3GDA 6 SBLE2103 SCCT1083 SCCT1093 SCCT2033 SCCT2213 SBLF3073 
QMT3HDA 6 SBLE2103 SCCT1083 SCCT1093 SCCT2033 SCCT2213 SBLF3083 
QMT5DA 3 SCCT3213 SCCT3223 SCCT3996 
QMT3ADB 6 SBLE2103 SCCT1083 SCCT1093 SCCT2033 SCCT2413 SBLF3013 
QMT3BDB 6 SBLE2103 SCCT1083 SCCT1093 SCCT2033 SCCT2413 SBLF3023 
QMT3CDB 6 SBLE2103 SCCT1083 SCCT1093 SCCT2033 SCCT2413 SBLF3033 
QMT3DDB 6 SBLE2103 SCCT1083 SCCT1093 SCCT2033 SCCT2413 SBLF3043 
QMT3EDB 6 SBLE2103 SCCT1083 SCCT1093 SCCT2033 SCCT2413 SBLF3053 
QMT3FDB 6 SBLE2103 SCCT1083 SCCT1093 SCCT2033 SCCT2413 SBLF3063 
QMT3GDB 6 SBLE2103 SCCT1083 SCCT1093 SCCT2033 SCCT2413 SBLF3073 
QMT3HDB 6 SBLE2103 SCCT1083 SCCT1093 SCCT2033 SCCT2413 SBLF3083 
QMT5DB 3 SCCT3413 SCCT3423 SCCT3996 
QCM1 4 SADN1043 SADN1033 SCCA1013 SCCA1023 
QCM2 5 SADN1013 SBLE1033 SCCT1013 SCCA1033 SCCT1033 
QCM3 6 SBLE1043 SBLM1023 STID1103 SCCA2023 SCCA2033 SCCA2043 
QCM4SC 4 SBLE2103 SCCA2073 SCCA2053 STIV1023 
QCM5SC 3 SCCA2083 SCCD3223 SCCD3233 
QCM6SC 3 SCCA2013 SCCA3013 SCCD3243 
QCM7SC 2 SCCA3023 SCCD3263 
QCM4OC 5 SBLE2103 SCCA2073 SCCA2053 STIV1023 SCCG3113 
QCM5OC 3 SCCA2083 SCCG3123 SCCG3133 
QCM6OC 3 SCCA2013 SCCA3013 SCCG3143 
QCM7OC 1 SCCA3023 
QCM4MT 5 SBLE2103 SCCA2073 SCCA2053 STIV1023 SCCT2033 
QCM5MT 1 SCCA2083 
QCM6MT 3 SCCA2013 SCCA3013 SCCT3213 
QCM7MT 2 SCCA3023 SCCT3323 
QCM4CI 5 SBLE2103 SCCA2073 SCCA2053 STIV1023 SCIM1033 
QCM6CI 2 SCCA2013 SCCA3013 
QCI1 6 SADN1013 SADN1033 SBLE1033 SCIM1013 SCIM1023 SCIM1033 
QCI2 3 SBLE1043 SADN1043 SCCT1083 
QCIF3 5 SBLE2103 SCIM2013 SCIM2023 SCIM2033 SCIM2103 
QCIF5 1 SBLE2083 
QCIA3 5 SBLE2103 SCIM2013 SCIM2023 SCIM2033 SCIM2303 
QCII3 5 SBLE2103 SCIM2013 SCIM2023 SCIM2033 SCIM2403 
QDS2L 5 SADN1013 SBLE1033 SQQM2023 SQIT1013 SQQP1013 
QDS3AL 6 SBLM1013 SBLE1043 SQQM1043 SQQP2013 STID1013 SQQS2023 
QDS3BL 6 SBLM1023 SBLE1043 SQQM1043 SQQP2013 STID1013 SQQS2023 
QDS3CL 6 SBLM1043 SBLE1043 SQQM1043 SQQP2013 STID1013 SQQS2023 
QDS4L 6 SBLE2103 SGDN1043 SQQM2043 SQQP3033 SQQS2043 SQQP3013 
QDS5L 4 SQQP3043 SQIT3013 SQQS3033 SQQS3043 
QDS6L 4 SQQS3073 SQQS3053 SQQS3063 SQIT3023 
QDS1 5 SADN1033 SADN1043 SQQM1034 SQQM1063 SQQS1033 
QDS2 5 SADN1013 SBLE1033 SQQM2023 SQQM2034 SQQS1043 
QDS3 4 SBLE1043 SQIT1013 SQQP1014 SQQS2063 
QDS4 2 SBLE2103 SQIT3033 
QDS5 3 SQQP3033 SGDN1043 SQQS3063 
QDS6 2 SQQP3043 SQQP3063 
QDS7 1 SQQM3043 
QBM1 5 SADN1033 SADN1043 SQQM1034 SQQS1033 SBLE1033 
QBM2 4 SADN1013 STIA1014 SBLE1043 SQQM2034 
QBM3 4 SQQM3043 SQQS1043 SQQM1063 SBLE2103 
QBM4 2 SQQS2063 SQQM2023 
QID1 5 SADN1033 SADN1043 SQQM1034 SQQS1033 STID1013 
QID2 3 SADN1013 SQQM2023 SQQS1043 
QID3 4 SBLE1043 SQQM2034 SQQS2063 STIA1014 
QID4 2 SBLE2103 SQQM3043 
QID5 1 SQQP3023 
QID6 1 SQQS3063 
QSW1 5 SADN1013 SADN1033 SBLE1033 SSWP1013 SSYA1013 
QSW2 3 SADN1043 SBLE1043 SSYM1023 
QSW3 6 SBLE2103 SSWA2103 SSWT1033 SSWY1043 SCCA2033 SSSP1013 
QSW4 4 SSYS2023 SSWA2203 SSWA2303 SSWA3113 
QSW5 5 SSQL1113 SSWA2313 SSWA3123 SSWA3133 SSWA3413 
QSW6 5 SSZK2003 SSWA3713 SSWA3813 SSWP1033 SSWR2063 
QSW7 2 SSWS2153 SSWS2213 
QCL1A 6 SADN1043 SSYA1013 SSKC1013 SBLM1013 SADN1033 SCCT1013 
QCL1B 6 SADN1043 SSYA1013 SSKC1013 SBLM1053 SADN1033 SCCT1013 
QCL2 4 SADN1013 SBLE1033 SSYM1023 SSQL1113 
QCL3 6 SBLE1043 SSZK2003 SSYM2213 SSYP2013 SSKC2213 SSKC2233 
QCL4 2 SSYS2023 SBLE2103 
QCL5 5 SSYP2133 SSYP2313 SSYP2433 SSKC3233 SSKC3433 
QCL7 4 SSKC3733 SSKC4813 SSYP4543 SSCX4983 
QEI1 6 SGDA2013 SGDA2033 SADN1013 STIA1014 SADN1033 SBLE1033 
QEI2 4 SADN1043 SBLE1043 STIK1014 STIA2024 
QEI3 4 SGDA3014 SBLE2103 STIJ2024 STIV2013 
QEIM4 3 STID3014 SQQS1013 SQQM1034 
QEIM5 3 SGDM3013 SQQS2013 STID3024 
QEIM6 2 SQQM1063 SQQM2023 
QEIM7 1 SGDM3043 
QEIT4 1 STID3014 
QEIT5 1 SGDM3013 
QEIT6 1 STID3024 
QEIL3 5 SGDA3014 SBLE2103 STID3024 STIJ2024 STIV2013 
QEIL5 3 SGDM3013 SGDV2033 SGDV2053 
QEIL7 2 SGDV2073 SGDM3043 
QEA1 5 SGDA2013 SGDA2033 SADN1013 SADN1033 SBLE1033 
QEA2 2 SADN1043 SBLE1043 
QEA3 2 SGDA3014 SBLE2103 
QEAM4 1 SQQS1013 
QEAM5 1 SQQS2013 
QEBM5 3 SQQM1063 SQQS2013 SQQM2023 
QEBM6 1 SGDN2023 
QEM1 6 SADN1013 SADN1033 SBLE1033 SGDA2013 SGDA2033 SSKC1013 
QEM3 4 SBLE2103 SGDA3014 SGDV2053 SGDV2033 
QEMM4 1 SBLM2023 
QEMM5 3 SGDV2073 SGDV3993 SGDK3013 
QEMM6 2 SBLM3033 SGDE3013 
QEMS5 3 SGDV2073 SGDV3993 SGDV2093 
QEG1 6 SADN1013 SBLE1033 SGDA2013 SGDA2033 SSYA1013 SSKC1013 
QEG2 3 SADN1043 SBLE1043 SSYS2023 
QEG3 5 SBLE2103 SGDA3014 SSYP2013 SSKC2213 SSKC2233 
QEGM4 1 SADN1033 
QEGM5 5 SSYP2133 SSYP2313 SSKC3433 SSKC3623 SGDV2033 
QEGM7 5 SSKC3733 SSKC4613 SSCX4983 SGDV2053 SGDV2073 
QEGM8 1 SSCZ4996 
QEGS5 5 SSYP2133 SSYP2313 SSKC3433 SSKC3623 SGDV2093 
QEGS7 3 SSKC3733 SSKC4613 SSCX4983 

UNAVAILABILITY_CONSTRAINTS:
SADN1013 2 12
SADN1013 2 13
SADN1013 2 14
SADN1013 2 15
SADN1013 2 16
SADN1013 2 17
SADN1033 2 12
SADN1033 2 13
SADN1033 2 14
SADN1033 2 15
SADN1033 2 16
SADN1033 2 17
SADN1043 2 12
SADN1043 2 13
SADN1043 2 14
SADN1043 2 15
SADN1043 2 16
SADN1043 2 17
SBLE1033 2 12
SBLE1033 2 13
SBLE1033 2 14
SBLE1033 2 15
SBLE1033 2 16
SBLE1033 2 17
SBLE1043 2 12
SBLE1043 2 13
SBLE1043 2 14
SBLE1043 2 15
SBLE1043 2 16
SBLE1043 2 17
SBLE2083 2 12
SBLE2083 2 13
SBLE2083 2 14
SBLE2083 2 15
SBLE2083 2 16
SBLE2083 2 17
SBLE2103 2 12
SBLE2103 2 13
SBLE2103 2 14
SBLE2103 2 15
SBLE2103 2 16
SBLE2103 2 17
SBLF1013 2 12
SBLF1013 2 13
SBLF1013 2 14
SBLF1013 2 15
SBLF1013 2 16
SBLF1013 2 17
SBLF1023 2 12
SBLF1023 2 13
SBLF1023 2 14
SBLF1023 2 15
SBLF1023 2 16
SBLF1023 2 17
SBLF1033 2 12
SBLF1033 2 13
SBLF1033 2 14
SBLF1033 2 15
SBLF1033 2 16
SBLF1033 2 17
SBLF1043 2 12
SBLF1043 2 13
SBLF1043 2 14
SBLF1043 2 15
SBLF1043 2 16
SBLF1043 2 17
SBLF1053 2 12
SBLF1053 2 13
SBLF1053 2 14
SBLF1053 2 15
SBLF1053 2 16
SBLF1053 2 17
SBLF1063 2 12
SBLF1063 2 13
SBLF1063 2 14
SBLF1063 2 15
SBLF1063 2 16
SBLF1063 2 17
SBLF1073 2 12
SBLF1073 2 13
SBLF1073 2 14
SBLF1073 2 15
SBLF1073 2 16
SBLF1073 2 17
SBLF1083 2 12
SBLF1083 2 13
SBLF1083 2 14
SBLF1083 2 15
SBLF1083 2 16
SBLF1083 2 17
SBLF2013 2 12
SBLF2013 2 13
SBLF2013 2 14
SBLF2013 2 15
SBLF2013 2 16
SBLF2013 2 17
SBLF2023 2 12
SBLF2023 2 13
SBLF2023 2 14
SBLF2023 2 15
SBLF2023 2 16
SBLF2023 2 17
SBLF2033 2 12
SBLF2033 2 13
SBLF2033 2 14
SBLF2033 2 15
SBLF2033 2 16
SBLF2033 2 17
SBLF2043 2 12
SBLF2043 2 13
SBLF2043 2 14
SBLF2043 2 15
SBLF2043 2 16
SBLF2043 2 17
SBLF2053 2 12
SBLF2053 2 13
SBLF2053 2 14
SBLF2053 2 15
SBLF2053 2 16
SBLF2053 2 17
SBLF2063 2 12
SBLF2063 2 13
SBLF2063 2 14
SBLF2063 2 15
SBLF2063 2 16
SBLF2063 2 17
SBLF2073 2 12
SBLF2073 2 13
SBLF2073 2 14
SBLF2073 2 15
SBLF2073 2 16
SBLF2073 2 17
SBLF2083 2 12
SBLF2083 2 13
SBLF2083 2 14
SBLF2083 2 15
SBLF2083 2 16
SBLF2083 2 17
SBLF3013 2 12
SBLF3013 2 13
SBLF3013 2 14
SBLF3013 2 15
SBLF3013 2 16
SBLF3013 2 17
SBLF3023 2 12
SBLF3023 2 13
SBLF3023 2 14
SBLF3023 2 15
SBLF3023 2 16
SBLF3023 2 17
SBLF3033 2 12
SBLF3033 2 13
SBLF3033 2 14
SBLF3033 2 15
SBLF3033 2 16
SBLF3033 2 17
SBLF3043 2 12
SBLF3043 2 13
SBLF3043 2 14
SBLF3043 2 15
SBLF3043 2 16
SBLF3043 2 17
SBLF3053 2 12
SBLF3053 2 13
SBLF3053 2 14
SBLF3053 2 15
SBLF3053 2 16
SBLF3053 2 17
SBLF3063 2 12
SBLF3063 2 13
SBLF3063 2 14
SBLF3063 2 15
SBLF3063 2 16
SBLF3063 2 17
SBLF3073 2 12
SBLF3073 2 13
SBLF3073 2 14
SBLF3073 2 15
SBLF3073 2 16
SBLF3073 2 17
SBLF3083 2 12
SBLF3083 2 13
SBLF3083 2 14
SBLF3083 2 15
SBLF3083 2 16
SBLF3083 2 17
SBLM1013 2 12
SBLM1013 2 13
SBLM1013 2 14
SBLM1013 2 15
SBLM1013 2 16
SBLM1013 2 17
SBLM1023 2 12
SBLM1023 2 13
SBLM1023 2 14
SBLM1023 2 15
SBLM1023 2 16
SBLM1023 2 17
SBLM1043 2 12
SBLM1043 2 13
SBLM1043 2 14
SBLM1043 2 15
SBLM1043 2 16
SBLM1043 2 17
SBLM1053 2 12
SBLM1053 2 13
SBLM1053 2 14
SBLM1053 2 15
SBLM1053 2 16
SBLM1053 2 17
SBLM2023 2 12
SBLM2023 2 13
SBLM2023 2 14
SBLM2023 2 15
SBLM2023 2 16
SBLM2023 2 17
SBLM3033 2 12
SBLM3033 2 13
SBLM3033 2 14
SBLM3033 2 15
SBLM3033 2 16
SBLM3033 2 17
SCCA1013 2 12
SCCA1013 2 13
SCCA1013 2 14
SCCA1013 2 15
SCCA1013 2 16
SCCA1013 2 17
SCCA1023 2 12
SCCA1023 2 13
SCCA1023 2 14
SCCA1023 2 15
SCCA1023 2 16
SCCA1023 2 17
SCCA1033 2 12
SCCA1033 2 13
SCCA1033 2 14
SCCA1033 2 15
SCCA1033 2 16
SCCA1033 2 17
SCCA2013 2 12
SCCA2013 2 13
SCCA2013 2 14
SCCA2013 2 15
SCCA2013 2 16
SCCA2013 2 17
SCCA2023 2 12
SCCA2023 2 13
SCCA2023 2 14
SCCA2023 2 15
SCCA2023 2 16
SCCA2023 2 17
SCCA2033 2 12
SCCA2033 2 13
SCCA2033 2 14
SCCA2033 2 15
SCCA2033 2 16
SCCA2033 2 17
SCCA2043 2 12
SCCA2043 2 13
SCCA2043 2 14
SCCA2043 2 15
SCCA2043 2 16
SCCA2043 2 17
SCCA2053 2 12
SCCA2053 2 13
SCCA2053 2 14
SCCA2053 2 15
SCCA2053 2 16
SCCA2053 2 17
SCCA2073 2 12
SCCA2073 2 13
SCCA2073 2 14
SCCA2073 2 15
SCCA2073 2 16
SCCA2073 2 17
SCCA2083 2 12
SCCA2083 2 13
SCCA2083 2 14
SCCA2083 2 15
SCCA2083 2 16
SCCA2083 2 17
SCCA3013 2 12
SCCA3013 2 13
SCCA3013 2 14
SCCA3013 2 15
SCCA3013 2 16
SCCA3013 2 17
SCCA3023 2 12
SCCA3023 2 13
SCCA3023 2 14
SCCA3023 2 15
SCCA3023 2 16
SCCA3023 2 17
SCCD3223 2 12
SCCD3223 2 13
SCCD3223 2 14
SCCD3223 2 15
SCCD3223 2 16
SCCD3223 2 17
SCCD3233 2 12
SCCD3233 2 13
SCCD3233 2 14
SCCD3233 2 15
SCCD3233 2 16
SCCD3233 2 17
SCCD3243 2 12
SCCD3243 2 13
SCCD3243 2 14
SCCD3243 2 15
SCCD3243 2 16
SCCD3243 2 17
SCCD3263 2 12
SCCD3263 2 13
SCCD3263 2 14
SCCD3263 2 15
SCCD3263 2 16
SCCD3263 2 17
SCCG3113 2 12
SCCG3113 2 13
SCCG3113 2 14
SCCG3113 2 15
SCCG3113 2 16
SCCG3113 2 17
SCCG3123 2 12
SCCG3123 2 13
SCCG3123 2 14
SCCG3123 2 15
SCCG3123 2 16
SCCG3123 2 17
SCCG3133 2 12
SCCG3133 2 13
SCCG3133 2 14
SCCG3133 2 15
SCCG3133 2 16
SCCG3133 2 17
SCCG3143 2 12
SCCG3143 2 13
SCCG3143 2 14
SCCG3143 2 15
SCCG3143 2 16
SCCG3143 2 17
SCCT1013 2 12
SCCT1013 2 13
SCCT1013 2 14
SCCT1013 2 15
SCCT1013 2 16
SCCT1013 2 17
SCCT1033 2 12
SCCT1033 2 13
SCCT1033 2 14
SCCT1033 2 15
SCCT1033 2 16
SCCT1033 2 17
SCCT1043 2 12
SCCT1043 2 13
SCCT1043 2 14
SCCT1043 2 15
SCCT1043 2 16
SCCT1043 2 17
SCCT1053 2 12
SCCT1053 2 13
SCCT1053 2 14
SCCT1053 2 15
SCCT1053 2 16
SCCT1053 2 17
SCCT1063 2 12
SCCT1063 2 13
SCCT1063 2 14
SCCT1063 2 15
SCCT1063 2 16
SCCT1063 2 17
SCCT1083 2 12
SCCT1083 2 13
SCCT1083 2 14
SCCT1083 2 15
SCCT1083 2 16
SCCT1083 2 17
SCCT1093 2 12
SCCT1093 2 13
SCCT1093 2 14
SCCT1093 2 15
SCCT1093 2 16
SCCT1093 2 17
SCCT2033 2 12
SCCT2033 2 13
SCCT2033 2 14
SCCT2033 2 15
SCCT2033 2 16
SCCT2033 2 17
SCCT2043 2 12
SCCT2043 2 13
SCCT2043 2 14
SCCT2043 2 15
SCCT2043 2 16
SCCT2043 2 17
SCCT2213 2 12
SCCT2213 2 13
SCCT2213 2 14
SCCT2213 2 15
SCCT2213 2 16
SCCT2213 2 17
SCCT2313 2 12
SCCT2313 2 13
SCCT2313 2 14
SCCT2313 2 15
SCCT2313 2 16
SCCT2313 2 17
SCCT2413 2 12
SCCT2413 2 13
SCCT2413 2 14
SCCT2413 2 15
SCCT2413 2 16
SCCT2413 2 17
SCCT3213 2 12
SCCT3213 2 13
SCCT3213 2 14
SCCT3213 2 15
SCCT3213 2 16
SCCT3213 2 17
SCCT3223 2 12
SCCT3223 2 13
SCCT3223 2 14
SCCT3223 2 15
SCCT3223 2 16
SCCT3223 2 17
SCCT3313 2 12
SCCT3313 2 13
SCCT3313 2 14
SCCT3313 2 15
SCCT3313 2 16
SCCT3313 2 17
SCCT3323 2 12
SCCT3323 2 13
SCCT3323 2 14
SCCT3323 2 15
SCCT3323 2 16
SCCT3323 2 17
SCCT3413 2 12
SCCT3413 2 13
SCCT3413 2 14
SCCT3413 2 15
SCCT3413 2 16
SCCT3413 2 17
SCCT3423 2 12
SCCT3423 2 13
SCCT3423 2 14
SCCT3423 2 15
SCCT3423 2 16
SCCT3423 2 17
SCCT3996 2 12
SCCT3996 2 13
SCCT3996 2 14
SCCT3996 2 15
SCCT3996 2 16
SCCT3996 2 17
SCIM1013 2 12
SCIM1013 2 13
SCIM1013 2 14
SCIM1013 2 15
SCIM1013 2 16
SCIM1013 2 17
SCIM1023 2 12
SCIM1023 2 13
SCIM1023 2 14
SCIM1023 2 15
SCIM1023 2 16
SCIM1023 2 17
SCIM1033 2 12
SCIM1033 2 13
SCIM1033 2 14
SCIM1033 2 15
SCIM1033 2 16
SCIM1033 2 17
SCIM2013 2 12
SCIM2013 2 13
SCIM2013 2 14
SCIM2013 2 15
SCIM2013 2 16
SCIM2013 2 17
SCIM2023 2 12
SCIM2023 2 13
SCIM2023 2 14
SCIM2023 2 15
SCIM2023 2 16
SCIM2023 2 17
SCIM2033 2 12
SCIM2033 2 13
SCIM2033 2 14
SCIM2033 2 15
SCIM2033 2 16
SCIM2033 2 17
SCIM2103 2 12
SCIM2103 2 13
SCIM2103 2 14
SCIM2103 2 15
SCIM2103 2 16
SCIM2103 2 17
SCIM2303 2 12
SCIM2303 2 13
SCIM2303 2 14
SCIM2303 2 15
SCIM2303 2 16
SCIM2303 2 17
SCIM2403 2 12
SCIM2403 2 13
SCIM2403 2 14
SCIM2403 2 15
SCIM2403 2 16
SCIM2403 2 17
SGDA2013 2 12
SGDA2013 2 13
SGDA2013 2 14
SGDA2013 2 15
SGDA2013 2 16
SGDA2013 2 17
SGDA2033 2 12
SGDA2033 2 13
SGDA2033 2 14
SGDA2033 2 15
SGDA2033 2 16
SGDA2033 2 17
SGDA3014 2 12
SGDA3014 2 13
SGDA3014 2 14
SGDA3014 2 15
SGDA3014 2 16
SGDA3014 2 17
SGDE3013 2 12
SGDE3013 2 13
SGDE3013 2 14
SGDE3013 2 15
SGDE3013 2 16
SGDE3013 2 17
SGDK3013 2 12
SGDK3013 2 13
SGDK3013 2 14
SGDK3013 2 15
SGDK3013 2 16
SGDK3013 2 17
SGDM3013 2 12
SGDM3013 2 13
SGDM3013 2 14
SGDM3013 2 15
SGDM3013 2 16
SGDM3013 2 17
SGDM3043 2 12
SGDM3043 2 13
SGDM3043 2 14
SGDM3043 2 15
SGDM3043 2 16
SGDM3043 2 17
SGDN1043 2 12
SGDN1043 2 13
SGDN1043 2 14
SGDN1043 2 15
SGDN1043 2 16
SGDN1043 2 17
SGDN2023 2 12
SGDN2023 2 13
SGDN2023 2 14
SGDN2023 2 15
SGDN2023 2 16
SGDN2023 2 17
SGDV2033 2 12
SGDV2033 2 13
SGDV2033 2 14
SGDV2033 2 15
SGDV2033 2 16
SGDV2033 2 17
SGDV2053 2 12
SGDV2053 2 13
SGDV2053 2 14
SGDV2053 2 15
SGDV2053 2 16
SGDV2053 2 17
SGDV2073 2 12
SGDV2073 2 13
SGDV2073 2 14
SGDV2073 2 15
SGDV2073 2 16
SGDV2073 2 17
SGDV2093 2 12
SGDV2093 2 13
SGDV2093 2 14
SGDV2093 2 15
SGDV2093 2 16
SGDV2093 2 17
SGDV3993 2 12
SGDV3993 2 13
SGDV3993 2 14
SGDV3993 2 15
SGDV3993 2 16
SGDV3993 2 17
SQIT1013 2 12
SQIT1013 2 13
SQIT1013 2 14
SQIT1013 2 15
SQIT1013 2 16
SQIT1013 2 17
SQIT3013 2 12
SQIT3013 2 13
SQIT3013 2 14
SQIT3013 2 15
SQIT3013 2 16
SQIT3013 2 17
SQIT3023 2 12
SQIT3023 2 13
SQIT3023 2 14
SQIT3023 2 15
SQIT3023 2 16
SQIT3023 2 17
SQIT3033 2 12
SQIT3033 2 13
SQIT3033 2 14
SQIT3033 2 15
SQIT3033 2 16
SQIT3033 2 17
SQQM1034 2 12
SQQM1034 2 13
SQQM1034 2 14
SQQM1034 2 15
SQQM1034 2 16
SQQM1034 2 17
SQQM1043 2 12
SQQM1043 2 13
SQQM1043 2 14
SQQM1043 2 15
SQQM1043 2 16
SQQM1043 2 17
SQQM1063 2 12
SQQM1063 2 13
SQQM1063 2 14
SQQM1063 2 15
SQQM1063 2 16
SQQM1063 2 17
SQQM2023 2 12
SQQM2023 2 13
SQQM2023 2 14
SQQM2023 2 15
SQQM2023 2 16
SQQM2023 2 17
SQQM2034 2 12
SQQM2034 2 13
SQQM2034 2 14
SQQM2034 2 15
SQQM2034 2 16
SQQM2034 2 17
SQQM2043 2 12
SQQM2043 2 13
SQQM2043 2 14
SQQM2043 2 15
SQQM2043 2 16
SQQM2043 2 17
SQQM3043 2 12
SQQM3043 2 13
SQQM3043 2 14
SQQM3043 2 15
SQQM3043 2 16
SQQM3043 2 17
SQQP1013 2 12
SQQP1013 2 13
SQQP1013 2 14
SQQP1013 2 15
SQQP1013 2 16
SQQP1013 2 17
SQQP1014 2 12
SQQP1014 2 13
SQQP1014 2 14
SQQP1014 2 15
SQQP1014 2 16
SQQP1014 2 17
SQQP2013 2 12
SQQP2013 2 13
SQQP2013 2 14
SQQP2013 2 15
SQQP2013 2 16
SQQP2013 2 17
SQQP3013 2 12
SQQP3013 2 13
SQQP3013 2 14
SQQP3013 2 15
SQQP3013 2 16
SQQP3013 2 17
SQQP3023 2 12
SQQP3023 2 13
SQQP3023 2 14
SQQP3023 2 15
SQQP3023 2 16
SQQP3023 2 17
SQQP3033 2 12
SQQP3033 2 13
SQQP3033 2 14
SQQP3033 2 15
SQQP3033 2 16
SQQP3033 2 17
SQQP3043 2 12
SQQP3043 2 13
SQQP3043 2 14
SQQP3043 2 15
SQQP3043 2 16
SQQP3043 2 17
SQQP3063 2 12
SQQP3063 2 13
SQQP3063 2 14
SQQP3063 2 15
SQQP3063 2 16
SQQP3063 2 17
SQQS1013 2 12
SQQS1013 2 13
SQQS1013 2 14
SQQS1013 2 15
SQQS1013 2 16
SQQS1013 2 17
SQQS1033 2 12
SQQS1033 2 13
SQQS1033 2 14
SQQS1033 2 15
SQQS1033 2 16
SQQS1033 2 17
SQQS1043 2 12
SQQS1043 2 13
SQQS1043 2 14
SQQS1043 2 15
SQQS1043 2 16
SQQS1043 2 17
SQQS2013 2 12
SQQS2013 2 13
SQQS2013 2 14
SQQS2013 2 15
SQQS2013 2 16
SQQS2013 2 17
SQQS2023 2 12
SQQS2023 2 13
SQQS2023 2 14
SQQS2023 2 15
SQQS2023 2 16
SQQS2023 2 17
SQQS2043 2 12
SQQS2043 2 13
SQQS2043 2 14
SQQS2043 2 15
SQQS2043 2 16
SQQS2043 2 17
SQQS2063 2 12
SQQS2063 2 13
SQQS2063 2 14
SQQS2063 2 15
SQQS2063 2 16
SQQS2063 2 17
SQQS3033 2 12
SQQS3033 2 13
SQQS3033 2 14
SQQS3033 2 15
SQQS3033 2 16
SQQS3033 2 17
SQQS3043 2 12
SQQS3043 2 13
SQQS3043 2 14
SQQS3043 2 15
SQQS3043 2 16
SQQS3043 2 17
SQQS3053 2 12
SQQS3053 2 13
SQQS3053 2 14
SQQS3053 2 15
SQQS3053 2 16
SQQS3053 2 17
SQQS3063 2 12
SQQS3063 2 13
SQQS3063 2 14
SQQS3063 2 15
SQQS3063 2 16
SQQS3063 2 17
SQQS3073 2 12
SQQS3073 2 13
SQQS3073 2 14
SQQS3073 2 15
SQQS3073 2 16
SQQS3073 2 17
SSCX4983 2 12
SSCX4983 2 13
SSCX4983 2 14
SSCX4983 2 15
SSCX4983 2 16
SSCX4983 2 17
SSCZ4996 2 12
SSCZ4996 2 13
SSCZ4996 2 14
SSCZ4996 2 15
SSCZ4996 2 16
SSCZ4996 2 17
SSKC1013 2 12
SSKC1013 2 13
SSKC1013 2 14
SSKC1013 2 15
SSKC1013 2 16
SSKC1013 2 17
SSKC2213 2 12
SSKC2213 2 13
SSKC2213 2 14
SSKC2213 2 15
SSKC2213 2 16
SSKC2213 2 17
SSKC2233 2 12
SSKC2233 2 13
SSKC2233 2 14
SSKC2233 2 15
SSKC2233 2 16
SSKC2233 2 17
SSKC3233 2 12
SSKC3233 2 13
SSKC3233 2 14
SSKC3233 2 15
SSKC3233 2 16
SSKC3233 2 17
SSKC3433 2 12
SSKC3433 2 13
SSKC3433 2 14
SSKC3433 2 15
SSKC3433 2 16
SSKC3433 2 17
SSKC3623 2 12
SSKC3623 2 13
SSKC3623 2 14
SSKC3623 2 15
SSKC3623 2 16
SSKC3623 2 17
SSKC3733 2 12
SSKC3733 2 13
SSKC3733 2 14
SSKC3733 2 15
SSKC3733 2 16
SSKC3733 2 17
SSKC4613 2 12
SSKC4613 2 13
SSKC4613 2 14
SSKC4613 2 15
SSKC4613 2 16
SSKC4613 2 17
SSKC4813 2 12
SSKC4813 2 13
SSKC4813 2 14
SSKC4813 2 15
SSKC4813 2 16
SSKC4813 2 17
SSQL1113 2 12
SSQL1113 2 13
SSQL1113 2 14
SSQL1113 2 15
SSQL1113 2 16
SSQL1113 2 17
SSSP1013 2 12
SSSP1013 2 13
SSSP1013 2 14
SSSP1013 2 15
SSSP1013 2 16
SSSP1013 2 17
SSWA2103 2 12
SSWA2103 2 13
SSWA2103 2 14
SSWA2103 2 15
SSWA2103 2 16
SSWA2103 2 17
SSWA2203 2 12
SSWA2203 2 13
SSWA2203 2 14
SSWA2203 2 15
SSWA2203 2 16
SSWA2203 2 17
SSWA2303 2 12
SSWA2303 2 13
SSWA2303 2 14
SSWA2303 2 15
SSWA2303 2 16
SSWA2303 2 17
SSWA2313 2 12
SSWA2313 2 13
SSWA2313 2 14
SSWA2313 2 15
SSWA2313 2 16
SSWA2313 2 17
SSWA3113 2 12
SSWA3113 2 13
SSWA3113 2 14
SSWA3113 2 15
SSWA3113 2 16
SSWA3113 2 17
SSWA3123 2 12
SSWA3123 2 13
SSWA3123 2 14
SSWA3123 2 15
SSWA3123 2 16
SSWA3123 2 17
SSWA3133 2 12
SSWA3133 2 13
SSWA3133 2 14
SSWA3133 2 15
SSWA3133 2 16
SSWA3133 2 17
SSWA3413 2 12
SSWA3413 2 13
SSWA3413 2 14
SSWA3413 2 15
SSWA3413 2 16
SSWA3413 2 17
SSWA3713 2 12
SSWA3713 2 13
SSWA3713 2 14
SSWA3713 2 15
SSWA3713 2 16
SSWA3713 2 17
SSWA3813 2 12
SSWA3813 2 13
SSWA3813 2 14
SSWA3813 2 15
SSWA3813 2 16
SSWA3813 2 17
SSWP1013 2 12
SSWP1013 2 13
SSWP1013 2 14
SSWP1013 2 15
SSWP1013 2 16
SSWP1013 2 17
SSWP1033 2 12
SSWP1033 2 13
SSWP1033 2 14
SSWP1033 2 15
SSWP1033 2 16
SSWP1033 2 17
SSWR2063 2 12
SSWR2063 2 13
SSWR2063 2 14
SSWR2063 2 15
SSWR2063 2 16
SSWR2063 2 17
SSWS2153 2 12
SSWS2153 2 13
SSWS2153 2 14
SSWS2153 2 15
SSWS2153 2 16
SSWS2153 2 17
SSWS2213 2 12
SSWS2213 2 13
SSWS2213 2 14
SSWS2213 2 15
SSWS2213 2 16
SSWS2213 2 17
SSWT1033 2 12
SSWT1033 2 13
SSWT1033 2 14
SSWT1033 2 15
SSWT1033 2 16
SSWT1033 2 17
SSWY1043 2 12
SSWY1043 2 13
SSWY1043 2 14
SSWY1043 2 15
SSWY1043 2 16
SSWY1043 2 17
SSYA1013 2 12
SSYA1013 2 13
SSYA1013 2 14
SSYA1013 2 15
SSYA1013 2 16
SSYA1013 2 17
SSYM1023 2 12
SSYM1023 2 13
SSYM1023 2 14
SSYM1023 2 15
SSYM1023 2 16
SSYM1023 2 17
SSYM2213 2 12
SSYM2213 2 13
SSYM2213 2 14
SSYM2213 2 15
SSYM2213 2 16
SSYM2213 2 17
SSYP2013 2 12
SSYP2013 2 13
SSYP2013 2 14
SSYP2013 2 15
SSYP2013 2 16
SSYP2013 2 17
SSYP2133 2 12
SSYP2133 2 13
SSYP2133 2 14
SSYP2133 2 15
SSYP2133 2 16
SSYP2133 2 17
SSYP2313 2 12
SSYP2313 2 13
SSYP2313 2 14
SSYP2313 2 15
SSYP2313 2 16
SSYP2313 2 17
SSYP2433 2 12
SSYP2433 2 13
SSYP2433 2 14
SSYP2433 2 15
SSYP2433 2 16
SSYP2433 2 17
SSYP4543 2 12
SSYP4543 2 13
SSYP4543 2 14
SSYP4543 2 15
SSYP4543 2 16
SSYP4543 2 17
SSYS2023 2 12
SSYS2023 2 13
SSYS2023 2 14
SSYS2023 2 15
SSYS2023 2 16
SSYS2023 2 17
SSZK2003 2 12
SSZK2003 2 13
SSZK2003 2 14
SSZK2003 2 15
SSZK2003 2 16
SSZK2003 2 17
STIA1013 2 12
STIA1013 2 13
STIA1013 2 14
STIA1013 2 15
STIA1013 2 16
STIA1013 2 17
STIA1014 2 12
STIA1014 2 13
STIA1014 2 14
STIA1014 2 15
STIA1014 2 16
STIA1014 2 17
STIA1023 2 12
STIA1023 2 13
STIA1023 2 14
STIA1023 2 15
STIA1023 2 16
STIA1023 2 17
STIA2023 2 12
STIA2023 2 13
STIA2023 2 14
STIA2023 2 15
STIA2023 2 16
STIA2023 2 17
STIA2024 2 12
STIA2024 2 13
STIA2024 2 14
STIA2024 2 15
STIA2024 2 16
STIA2024 2 17
STID1013 2 12
STID1013 2 13
STID1013 2 14
STID1013 2 15
STID1013 2 16
STID1013 2 17
STID1103 2 12
STID1103 2 13
STID1103 2 14
STID1103 2 15
STID1103 2 16
STID1103 2 17
STID3013 2 12
STID3013 2 13
STID3013 2 14
STID3013 2 15
STID3013 2 16
STID3013 2 17
STID3014 2 12
STID3014 2 13
STID3014 2 14
STID3014 2 15
STID3014 2 16
STID3014 2 17
STID3023 2 12
STID3023 2 13
STID3023 2 14
STID3023 2 15
STID3023 2 16
STID3023 2 17
STID3024 2 12
STID3024 2 13
STID3024 2 14
STID3024 2 15
STID3024 2 16
STID3024 2 17
STID3033 2 12
STID3033 2 13
STID3033 2 14
STID3033 2 15
STID3033 2 16
STID3033 2 17
STID3053 2 12
STID3053 2 13
STID3053 2 14
STID3053 2 15
STID3053 2 16
STID3053 2 17
STID3073 2 12
STID3073 2 13
STID3073 2 14
STID3073 2 15
STID3073 2 16
STID3073 2 17
STID3113 2 12
STID3113 2 13
STID3113 2 14
STID3113 2 15
STID3113 2 16
STID3113 2 17
STID3123 2 12
STID3123 2 13
STID3123 2 14
STID3123 2 15
STID3123 2 16
STID3123 2 17
STID3143 2 12
STID3143 2 13
STID3143 2 14
STID3143 2 15
STID3143 2 16
STID3143 2 17
STID3153 2 12
STID3153 2 13
STID3153 2 14
STID3153 2 15
STID3153 2 16
STID3153 2 17
STID3154 2 12
STID3154 2 13
STID3154 2 14
STID3154 2 15
STID3154 2 16
STID3154 2 17
STID3163 2 12
STID3163 2 13
STID3163 2 14
STID3163 2 15
STID3163 2 16
STID3163 2 17
STID4053 2 12
STID4053 2 13
STID4053 2 14
STID4053 2 15
STID4053 2 16
STID4053 2 17
STID4063 2 12
STID4063 2 13
STID4063 2 14
STID4063 2 15
STID4063 2 16
STID4063 2 17
STID4073 2 12
STID4073 2 13
STID4073 2 14
STID4073 2 15
STID4073 2 16
STID4073 2 17
STIJ2023 2 12
STIJ2023 2 13
STIJ2023 2 14
STIJ2023 2 15
STIJ2023 2 16
STIJ2023 2 17
STIJ2024 2 12
STIJ2024 2 13
STIJ2024 2 14
STIJ2024 2 15
STIJ2024 2 16
STIJ2024 2 17
STIJ3023 2 12
STIJ3023 2 13
STIJ3023 2 14
STIJ3023 2 15
STIJ3023 2 16
STIJ3023 2 17
STIJ3043 2 12
STIJ3043 2 13
STIJ3043 2 14
STIJ3043 2 15
STIJ3043 2 16
STIJ3043 2 17
STIJ3044 2 12
STIJ3044 2 13
STIJ3044 2 14
STIJ3044 2 15
STIJ3044 2 16
STIJ3044 2 17
STIJ3053 2 12
STIJ3053 2 13
STIJ3053 2 14
STIJ3053 2 15
STIJ3053 2 16
STIJ3053 2 17
STIJ3063 2 12
STIJ3063 2 13
STIJ3063 2 14
STIJ3063 2 15
STIJ3063 2 16
STIJ3063 2 17
STIJ3103 2 12
STIJ3103 2 13
STIJ3103 2 14
STIJ3103 2 15
STIJ3103 2 16
STIJ3103 2 17
STIJ3133 2 12
STIJ3133 2 13
STIJ3133 2 14
STIJ3133 2 15
STIJ3133 2 16
STIJ3133 2 17
STIJ3143 2 12
STIJ3143 2 13
STIJ3143 2 14
STIJ3143 2 15
STIJ3143 2 16
STIJ3143 2 17
STIJ4053 2 12
STIJ4053 2 13
STIJ4053 2 14
STIJ4053 2 15
STIJ4053 2 16
STIJ4053 2 17
STIK1013 2 12
STIK1013 2 13
STIK1013 2 14
STIK1013 2 15
STIK1013 2 16
STIK1013 2 17
STIK1014 2 12
STIK1014 2 13
STIK1014 2 14
STIK1014 2 15
STIK1014 2 16
STIK1014 2 17
STIK2023 2 12
STIK2023 2 13
STIK2023 2 14
STIK2023 2 15
STIK2023 2 16
STIK2023 2 17
STIK2024 2 12
STIK2024 2 13
STIK2024 2 14
STIK2024 2 15
STIK2024 2 16
STIK2024 2 17
STIK2043 2 12
STIK2043 2 13
STIK2043 2 14
STIK2043 2 15
STIK2043 2 16
STIK2043 2 17
STIN1013 2 12
STIN1013 2 13
STIN1013 2 14
STIN1013 2 15
STIN1013 2 16
STIN1013 2 17
STIN2023 2 12
STIN2023 2 13
STIN2023 2 14
STIN2023 2 15
STIN2023 2 16
STIN2023 2 17
STIN2024 2 12
STIN2024 2 13
STIN2024 2 14
STIN2024 2 15
STIN2024 2 16
STIN2024 2 17
STIN2043 2 12
STIN2043 2 13
STIN2043 2 14
STIN2043 2 15
STIN2043 2 16
STIN2043 2 17
STIN2063 2 12
STIN2063 2 13
STIN2063 2 14
STIN2063 2 15
STIN2063 2 16
STIN2063 2 17
STIN2103 2 12
STIN2103 2 13
STIN2103 2 14
STIN2103 2 15
STIN2103 2 16
STIN2103 2 17
STIN3033 2 12
STIN3033 2 13
STIN3033 2 14
STIN3033 2 15
STIN3033 2 16
STIN3033 2 17
STIN3073 2 12
STIN3073 2 13
STIN3073 2 14
STIN3073 2 15
STIN3073 2 16
STIN3073 2 17
STIN3163 2 12
STIN3163 2 13
STIN3163 2 14
STIN3163 2 15
STIN3163 2 16
STIN3163 2 17
STIV1013 2 12
STIV1013 2 13
STIV1013 2 14
STIV1013 2 15
STIV1013 2 16
STIV1013 2 17
STIV1023 2 12
STIV1023 2 13
STIV1023 2 14
STIV1023 2 15
STIV1023 2 16
STIV1023 2 17
STIV2013 2 12
STIV2013 2 13
STIV2013 2 14
STIV2013 2 15
STIV2013 2 16
STIV2013 2 17
STIV2023 2 12
STIV2023 2 13
STIV2023 2 14
STIV2023 2 15
STIV2023 2 16
STIV2023 2 17
STIV2043 2 12
STIV2043 2 13
STIV2043 2 14
STIV2043 2 15
STIV2043 2 16
STIV2043 2 17
STIV3013 2 12
STIV3013 2 13
STIV3013 2 14
STIV3013 2 15
STIV3013 2 16
STIV3013 2 17
STIV3023 2 12
STIV3023 2 13
STIV3023 2 14
STIV3023 2 15
STIV3023 2 16
STIV3023 2 17
STIV3033 2 12
STIV3033 2 13
STIV3033 2 14
STIV3033 2 15
STIV3033 2 16
STIV3033 2 17
STIV3043 2 12
STIV3043 2 13
STIV3043 2 14
STIV3043 2 15
STIV3043 2 16
STIV3043 2 17
STIV3053 2 12
STIV3053 2 13
STIV3053 2 14
STIV3053 2 15
STIV3053 2 16
STIV3053 2 17
STIV3063 2 12
STIV3063 2 13
STIV3063 2 14
STIV3063 2 15
STIV3063 2 16
STIV3063 2 17
STIV3073 2 12
STIV3073 2 13
STIV3073 2 14
STIV3073 2 15
STIV3073 2 16
STIV3073 2 17
STIV3083 2 12
STIV3083 2 13
STIV3083 2 14
STIV3083 2 15
STIV3083 2 16
STIV3083 2 17
STIV3093 2 12
STIV3093 2 13
STIV3093 2 14
STIV3093 2 15
STIV3093 2 16
STIV3093 2 17
STIV3103 2 12
STIV3103 2 13
STIV3103 2 14
STIV3103 2 15
STIV3103 2 16
STIV3103 2 17
STIV3113 2 12
STIV3113 2 13
STIV3113 2 14
STIV3113 2 15
STIV3113 2 16
STIV3113 2 17
STIW2024 2 12
STIW2024 2 13
STIW2024 2 14
STIW2024 2 15
STIW2024 2 16
STIW2024 2 17
STIW2043 2 12
STIW2043 2 13
STIW2043 2 14
STIW2043 2 15
STIW2043 2 16
STIW2043 2 17
STIW3013 2 12
STIW3013 2 13
STIW3013 2 14
STIW3013 2 15
STIW3013 2 16
STIW3013 2 17
STIW3023 2 12
STIW3023 2 13
STIW3023 2 14
STIW3023 2 15
STIW3023 2 16
STIW3023 2 17
STIW3033 2 12
STIW3033 2 13
STIW3033 2 14
STIW3033 2 15
STIW3033 2 16
STIW3033 2 17
STIW3043 2 12
STIW3043 2 13
STIW3043 2 14
STIW3043 2 15
STIW3043 2 16
STIW3043 2 17
STIW3053 2 12
STIW3053 2 13
STIW3053 2 14
STIW3053 2 15
STIW3053 2 16
STIW3053 2 17
STIW3063 2 12
STIW3063 2 13
STIW3063 2 14
STIW3063 2 15
STIW3063 2 16
STIW3063 2 17
STIW3103 2 12
STIW3103 2 13
STIW3103 2 14
STIW3103 2 15
STIW3103 2 16
STIW3103 2 17
STIW3113 2 12
STIW3113 2 13
STIW3113 2 14
STIW3113 2 15
STIW3113 2 16
STIW3113 2 17
STQM1203 2 12
STQM1203 2 13
STQM1203 2 14
STQM1203 2 15
STQM1203 2 16
STQM1203 2 17
STQM2103 2 12
STQM2103 2 13
STQM2103 2 14
STQM2103 2 15
STQM2103 2 16
STQM2103 2 17
STQS1023 2 12
STQS1023 2 13
STQS1023 2 14
STQS1023 2 15
STQS1023 2 16
STQS1023 2 17

ROOM_CONSTRAINTS:
END.
